c Command line: hgen8 150 80
p cnf 150 231
16 103 111 121 0
20 7 24 149 0
67 74 115 33 0
116 50 2 18 0
43 139 142 99 0
35 89 13 112 0
96 120 41 105 0
54 11 72 87 0
95 150 101 61 0
117 85 5 147 0
56 108 9 146 0
23 83 131 109 0
100 81 69 127 0
68 73 144 90 0
91 21 40 42 0
58 1 104 122 0
84 39 51 31 0
46 36 4 27 0
136 137 15 110 0
94 3 19 78 0
128 6 80 125 0
119 30 34 12 0
138 45 92 75 0
133 64 135 114 0
124 52 37 62 0
93 57 26 143 0
10 79 86 14 0
32 130 141 17 0
97 28 48 70 0
126 132 118 145 0
71 22 106 63 0
-1 -2 0
-1 -3 0
-1 -4 0
-1 -5 0
-2 -3 0
-2 -4 0
-2 -5 0
-3 -4 0
-3 -5 0
-4 -5 0
-6 -7 0
-6 -9 0
-6 -10 0
-7 -9 0
-7 -10 0
-9 -10 0
-11 -12 0
-11 -13 0
-11 -14 0
-11 -15 0
-12 -13 0
-12 -14 0
-12 -15 0
-13 -14 0
-13 -15 0
-14 -15 0
-16 -17 0
-16 -18 0
-16 -19 0
-16 -20 0
-17 -18 0
-17 -19 0
-17 -20 0
-18 -19 0
-18 -20 0
-19 -20 0
-21 -22 0
-21 -23 0
-21 -24 0
-22 -23 0
-22 -24 0
-23 -24 0
-26 -27 0
-26 -28 0
-26 -30 0
-27 -28 0
-27 -30 0
-28 -30 0
-31 -32 0
-31 -33 0
-31 -34 0
-31 -35 0
-32 -33 0
-32 -34 0
-32 -35 0
-33 -34 0
-33 -35 0
-34 -35 0
-36 -37 0
-36 -39 0
-36 -40 0
-37 -39 0
-37 -40 0
-39 -40 0
-41 -42 0
-41 -43 0
-41 -45 0
-42 -43 0
-42 -45 0
-43 -45 0
-46 -48 0
-46 -50 0
-48 -50 0
-51 -52 0
-51 -54 0
-52 -54 0
-56 -57 0
-56 -58 0
-57 -58 0
-61 -62 0
-61 -63 0
-61 -64 0
-62 -63 0
-62 -64 0
-63 -64 0
-67 -68 0
-67 -69 0
-67 -70 0
-68 -69 0
-68 -70 0
-69 -70 0
-71 -72 0
-71 -73 0
-71 -74 0
-71 -75 0
-72 -73 0
-72 -74 0
-72 -75 0
-73 -74 0
-73 -75 0
-74 -75 0
-78 -79 0
-78 -80 0
-79 -80 0
-81 -83 0
-81 -84 0
-81 -85 0
-83 -84 0
-83 -85 0
-84 -85 0
-86 -87 0
-86 -89 0
-86 -90 0
-87 -89 0
-87 -90 0
-89 -90 0
-91 -92 0
-91 -93 0
-91 -94 0
-91 -95 0
-92 -93 0
-92 -94 0
-92 -95 0
-93 -94 0
-93 -95 0
-94 -95 0
-96 -97 0
-96 -99 0
-96 -100 0
-97 -99 0
-97 -100 0
-99 -100 0
-101 -103 0
-101 -104 0
-101 -105 0
-103 -104 0
-103 -105 0
-104 -105 0
-106 -108 0
-106 -109 0
-106 -110 0
-108 -109 0
-108 -110 0
-109 -110 0
-111 -112 0
-111 -114 0
-111 -115 0
-112 -114 0
-112 -115 0
-114 -115 0
-116 -117 0
-116 -118 0
-116 -119 0
-116 -120 0
-117 -118 0
-117 -119 0
-117 -120 0
-118 -119 0
-118 -120 0
-119 -120 0
-121 -122 0
-121 -124 0
-121 -125 0
-122 -124 0
-122 -125 0
-124 -125 0
-126 -127 0
-126 -128 0
-126 -130 0
-127 -128 0
-127 -130 0
-128 -130 0
-131 -132 0
-131 -133 0
-131 -135 0
-132 -133 0
-132 -135 0
-133 -135 0
-136 -137 0
-136 -138 0
-136 -139 0
-137 -138 0
-137 -139 0
-138 -139 0
-141 -142 0
-141 -143 0
-141 -144 0
-141 -145 0
-142 -143 0
-142 -144 0
-142 -145 0
-143 -144 0
-143 -145 0
-144 -145 0
-146 -147 0
-146 -149 0
-146 -150 0
-147 -149 0
-147 -150 0
-149 -150 0
